(declare-fun b306 () (_ FloatingPoint 11 53))
(declare-fun b1175 () (_ FloatingPoint 8 24))
(declare-fun b217 () (_ FloatingPoint 11 53))
(declare-fun b390 () (_ FloatingPoint 11 53))
(declare-fun b1086 () (_ FloatingPoint 8 24))
(declare-fun b1031 () (_ FloatingPoint 8 24))
(declare-fun b357 () (_ FloatingPoint 11 53))
(declare-fun b1110 () (_ FloatingPoint 8 24))
(declare-fun b1160 () (_ FloatingPoint 8 24))
(declare-fun b1011 () (_ FloatingPoint 8 24))
(declare-fun b1115 () (_ FloatingPoint 8 24))
(declare-fun b685 () (_ FloatingPoint 8 24))
(declare-fun b1056 () (_ FloatingPoint 8 24))
(declare-fun b1145 () (_ FloatingPoint 8 24))
(declare-fun b1076 () (_ FloatingPoint 8 24))
(declare-fun b1021 () (_ FloatingPoint 8 24))
(declare-fun b1066 () (_ FloatingPoint 8 24))
(declare-fun b1016 () (_ FloatingPoint 8 24))
(declare-fun b1046 () (_ FloatingPoint 8 24))
(declare-fun b1155 () (_ FloatingPoint 8 24))
(declare-fun b1026 () (_ FloatingPoint 8 24))
(declare-fun b289 () (_ FloatingPoint 11 53))
(declare-fun b1125 () (_ FloatingPoint 8 24))
(declare-fun b1140 () (_ FloatingPoint 8 24))
(declare-fun b1120 () (_ FloatingPoint 8 24))
(declare-fun b198 () (_ FloatingPoint 8 24))
(declare-fun b996 () (_ FloatingPoint 8 24))
(declare-fun b1180 () (_ FloatingPoint 8 24))
(declare-fun b207 () (_ FloatingPoint 8 24))
(declare-fun b441 () (_ FloatingPoint 11 53))
(declare-fun b1006 () (_ FloatingPoint 8 24))
(declare-fun b1095 () (_ FloatingPoint 8 24))
(declare-fun b200 () (_ FloatingPoint 8 24))
(declare-fun b1190 () (_ FloatingPoint 8 24))
(declare-fun b1100 () (_ FloatingPoint 8 24))
(declare-fun b526 () (_ FloatingPoint 11 53))
(declare-fun b994 () (_ FloatingPoint 8 24))
(declare-fun b1130 () (_ FloatingPoint 8 24))
(declare-fun b1051 () (_ FloatingPoint 8 24))
(declare-fun b989 () (_ FloatingPoint 8 24))
(declare-fun b1165 () (_ FloatingPoint 8 24))
(declare-fun b1071 () (_ FloatingPoint 8 24))
(declare-fun b340 () (_ FloatingPoint 11 53))
(declare-fun b1081 () (_ FloatingPoint 8 24))
(declare-fun b1061 () (_ FloatingPoint 8 24))
(declare-fun b323 () (_ FloatingPoint 11 53))
(declare-fun b1001 () (_ FloatingPoint 8 24))
(declare-fun b475 () (_ FloatingPoint 11 53))
(declare-fun b1150 () (_ FloatingPoint 8 24))
(declare-fun b543 () (_ FloatingPoint 11 53))
(declare-fun b424 () (_ FloatingPoint 11 53))
(declare-fun b682 () (_ FloatingPoint 8 24))
(declare-fun b1036 () (_ FloatingPoint 8 24))
(declare-fun b1135 () (_ FloatingPoint 8 24))
(declare-fun b255 () (_ FloatingPoint 11 53))
(declare-fun b239 () (_ FloatingPoint 11 53))
(declare-fun b407 () (_ FloatingPoint 11 53))
(declare-fun b1170 () (_ FloatingPoint 8 24))
(declare-fun b1041 () (_ FloatingPoint 8 24))
(declare-fun b492 () (_ FloatingPoint 11 53))
(declare-fun b272 () (_ FloatingPoint 11 53))
(declare-fun b458 () (_ FloatingPoint 11 53))
(declare-fun b1185 () (_ FloatingPoint 8 24))
(declare-fun b509 () (_ FloatingPoint 11 53))
(declare-fun b1105 () (_ FloatingPoint 8 24))
(declare-fun b373 () (_ FloatingPoint 11 53))
(declare-fun b230 () (_ FloatingPoint 11 53))
(assert (let ((.def_554 ((_ to_fp 11 53) RNE b1095)))
(let ((.def_555 (fp.leq b230 .def_554)))
(let ((.def_556 (not .def_555)))
(let ((.def_10 (fp.mul RNE b198 b198)))
(let ((.def_11 (fp.neg .def_10)))
(let ((.def_12 (fp.mul RNE b198 .def_11)))
(let ((.def_13 ((_ to_fp 11 53) RNE .def_12)))
(let ((.def_15 (fp.div RNE .def_13 b217)))
(let ((.def_16 ((_ to_fp 8 24) RNE .def_15)))
(let ((.def_551 (fp.neg .def_16)))
(let ((.def_552 (= b1190 .def_551)))
(let ((.def_548 (fp.leq b200 .def_16)))
(let ((.def_549 (not .def_548)))
(let ((.def_20 (fp.mul RNE .def_11 .def_16)))
(let ((.def_21 ((_ to_fp 11 53) RNE .def_20)))
(let ((.def_23 (fp.div RNE .def_21 b239)))
(let ((.def_24 ((_ to_fp 8 24) RNE .def_23)))
(let ((.def_544 (fp.neg .def_24)))
(let ((.def_545 (= b1185 .def_544)))
(let ((.def_541 (fp.leq b200 .def_24)))
(let ((.def_542 (not .def_541)))
(let ((.def_28 (fp.mul RNE .def_11 .def_24)))
(let ((.def_29 ((_ to_fp 11 53) RNE .def_28)))
(let ((.def_31 (fp.div RNE .def_29 b255)))
(let ((.def_32 ((_ to_fp 8 24) RNE .def_31)))
(let ((.def_537 (fp.neg .def_32)))
(let ((.def_538 (= b1180 .def_537)))
(let ((.def_534 (fp.leq b200 .def_32)))
(let ((.def_535 (not .def_534)))
(let ((.def_36 (fp.mul RNE .def_11 .def_32)))
(let ((.def_37 ((_ to_fp 11 53) RNE .def_36)))
(let ((.def_39 (fp.div RNE .def_37 b272)))
(let ((.def_40 ((_ to_fp 8 24) RNE .def_39)))
(let ((.def_530 (fp.neg .def_40)))
(let ((.def_531 (= b1175 .def_530)))
(let ((.def_527 (fp.leq b200 .def_40)))
(let ((.def_528 (not .def_527)))
(let ((.def_44 (fp.mul RNE .def_11 .def_40)))
(let ((.def_45 ((_ to_fp 11 53) RNE .def_44)))
(let ((.def_47 (fp.div RNE .def_45 b289)))
(let ((.def_48 ((_ to_fp 8 24) RNE .def_47)))
(let ((.def_523 (fp.neg .def_48)))
(let ((.def_524 (= b1170 .def_523)))
(let ((.def_520 (fp.leq b200 .def_48)))
(let ((.def_521 (not .def_520)))
(let ((.def_52 (fp.mul RNE .def_11 .def_48)))
(let ((.def_53 ((_ to_fp 11 53) RNE .def_52)))
(let ((.def_55 (fp.div RNE .def_53 b306)))
(let ((.def_56 ((_ to_fp 8 24) RNE .def_55)))
(let ((.def_516 (fp.neg .def_56)))
(let ((.def_517 (= b1165 .def_516)))
(let ((.def_513 (fp.leq b200 .def_56)))
(let ((.def_514 (not .def_513)))
(let ((.def_60 (fp.mul RNE .def_11 .def_56)))
(let ((.def_61 ((_ to_fp 11 53) RNE .def_60)))
(let ((.def_63 (fp.div RNE .def_61 b323)))
(let ((.def_64 ((_ to_fp 8 24) RNE .def_63)))
(let ((.def_509 (fp.neg .def_64)))
(let ((.def_510 (= b1160 .def_509)))
(let ((.def_506 (fp.leq b200 .def_64)))
(let ((.def_507 (not .def_506)))
(let ((.def_68 (fp.mul RNE .def_11 .def_64)))
(let ((.def_69 ((_ to_fp 11 53) RNE .def_68)))
(let ((.def_71 (fp.div RNE .def_69 b340)))
(let ((.def_72 ((_ to_fp 8 24) RNE .def_71)))
(let ((.def_502 (fp.neg .def_72)))
(let ((.def_503 (= b1155 .def_502)))
(let ((.def_499 (fp.leq b200 .def_72)))
(let ((.def_500 (not .def_499)))
(let ((.def_76 (fp.mul RNE .def_11 .def_72)))
(let ((.def_77 ((_ to_fp 11 53) RNE .def_76)))
(let ((.def_79 (fp.div RNE .def_77 b357)))
(let ((.def_80 ((_ to_fp 8 24) RNE .def_79)))
(let ((.def_495 (fp.neg .def_80)))
(let ((.def_496 (= b1150 .def_495)))
(let ((.def_492 (fp.leq b200 .def_80)))
(let ((.def_493 (not .def_492)))
(let ((.def_84 (fp.mul RNE .def_11 .def_80)))
(let ((.def_85 ((_ to_fp 11 53) RNE .def_84)))
(let ((.def_87 (fp.div RNE .def_85 b373)))
(let ((.def_88 ((_ to_fp 8 24) RNE .def_87)))
(let ((.def_488 (fp.neg .def_88)))
(let ((.def_489 (= b1145 .def_488)))
(let ((.def_485 (fp.leq b200 .def_88)))
(let ((.def_486 (not .def_485)))
(let ((.def_92 (fp.mul RNE .def_11 .def_88)))
(let ((.def_93 ((_ to_fp 11 53) RNE .def_92)))
(let ((.def_95 (fp.div RNE .def_93 b390)))
(let ((.def_96 ((_ to_fp 8 24) RNE .def_95)))
(let ((.def_481 (fp.neg .def_96)))
(let ((.def_482 (= b1140 .def_481)))
(let ((.def_478 (fp.leq b200 .def_96)))
(let ((.def_479 (not .def_478)))
(let ((.def_100 (fp.mul RNE .def_11 .def_96)))
(let ((.def_101 ((_ to_fp 11 53) RNE .def_100)))
(let ((.def_103 (fp.div RNE .def_101 b407)))
(let ((.def_104 ((_ to_fp 8 24) RNE .def_103)))
(let ((.def_474 (fp.neg .def_104)))
(let ((.def_475 (= b1135 .def_474)))
(let ((.def_471 (fp.leq b200 .def_104)))
(let ((.def_472 (not .def_471)))
(let ((.def_108 (fp.mul RNE .def_11 .def_104)))
(let ((.def_109 ((_ to_fp 11 53) RNE .def_108)))
(let ((.def_111 (fp.div RNE .def_109 b424)))
(let ((.def_112 ((_ to_fp 8 24) RNE .def_111)))
(let ((.def_467 (fp.neg .def_112)))
(let ((.def_468 (= b1130 .def_467)))
(let ((.def_464 (fp.leq b200 .def_112)))
(let ((.def_465 (not .def_464)))
(let ((.def_116 (fp.mul RNE .def_11 .def_112)))
(let ((.def_117 ((_ to_fp 11 53) RNE .def_116)))
(let ((.def_119 (fp.div RNE .def_117 b441)))
(let ((.def_120 ((_ to_fp 8 24) RNE .def_119)))
(let ((.def_460 (fp.neg .def_120)))
(let ((.def_461 (= b1125 .def_460)))
(let ((.def_457 (fp.leq b200 .def_120)))
(let ((.def_458 (not .def_457)))
(let ((.def_124 (fp.mul RNE .def_11 .def_120)))
(let ((.def_125 ((_ to_fp 11 53) RNE .def_124)))
(let ((.def_127 (fp.div RNE .def_125 b458)))
(let ((.def_128 ((_ to_fp 8 24) RNE .def_127)))
(let ((.def_453 (fp.neg .def_128)))
(let ((.def_454 (= b1120 .def_453)))
(let ((.def_450 (fp.leq b200 .def_128)))
(let ((.def_451 (not .def_450)))
(let ((.def_132 (fp.mul RNE .def_11 .def_128)))
(let ((.def_133 ((_ to_fp 11 53) RNE .def_132)))
(let ((.def_135 (fp.div RNE .def_133 b475)))
(let ((.def_136 ((_ to_fp 8 24) RNE .def_135)))
(let ((.def_446 (fp.neg .def_136)))
(let ((.def_447 (= b1115 .def_446)))
(let ((.def_443 (fp.leq b200 .def_136)))
(let ((.def_444 (not .def_443)))
(let ((.def_140 (fp.mul RNE .def_11 .def_136)))
(let ((.def_141 ((_ to_fp 11 53) RNE .def_140)))
(let ((.def_143 (fp.div RNE .def_141 b492)))
(let ((.def_144 ((_ to_fp 8 24) RNE .def_143)))
(let ((.def_439 (fp.neg .def_144)))
(let ((.def_440 (= b1110 .def_439)))
(let ((.def_436 (fp.leq b200 .def_144)))
(let ((.def_437 (not .def_436)))
(let ((.def_148 (fp.mul RNE .def_11 .def_144)))
(let ((.def_149 ((_ to_fp 11 53) RNE .def_148)))
(let ((.def_151 (fp.div RNE .def_149 b509)))
(let ((.def_152 ((_ to_fp 8 24) RNE .def_151)))
(let ((.def_432 (fp.neg .def_152)))
(let ((.def_433 (= b1105 .def_432)))
(let ((.def_429 (fp.leq b200 .def_152)))
(let ((.def_430 (not .def_429)))
(let ((.def_156 (fp.mul RNE .def_11 .def_152)))
(let ((.def_157 ((_ to_fp 11 53) RNE .def_156)))
(let ((.def_159 (fp.div RNE .def_157 b526)))
(let ((.def_160 ((_ to_fp 8 24) RNE .def_159)))
(let ((.def_425 (fp.neg .def_160)))
(let ((.def_426 (= b1100 .def_425)))
(let ((.def_422 (fp.leq b200 .def_160)))
(let ((.def_423 (not .def_422)))
(let ((.def_164 (fp.mul RNE .def_11 .def_160)))
(let ((.def_165 ((_ to_fp 11 53) RNE .def_164)))
(let ((.def_167 (fp.div RNE .def_165 b543)))
(let ((.def_168 ((_ to_fp 8 24) RNE .def_167)))
(let ((.def_418 (fp.neg .def_168)))
(let ((.def_419 (= b1095 .def_418)))
(let ((.def_415 (fp.leq b200 .def_168)))
(let ((.def_416 (not .def_415)))
(let ((.def_227 (fp.add RNE b198 .def_16)))
(let ((.def_412 (= b994 .def_227)))
(let ((.def_408 ((_ to_fp 11 53) RNE b1190)))
(let ((.def_409 (fp.leq b230 .def_408)))
(let ((.def_410 (not .def_409)))
(let ((.def_228 (fp.add RNE .def_24 .def_227)))
(let ((.def_405 (= b1086 .def_228)))
(let ((.def_401 ((_ to_fp 11 53) RNE b1185)))
(let ((.def_402 (fp.leq b230 .def_401)))
(let ((.def_403 (not .def_402)))
(let ((.def_229 (fp.add RNE .def_32 .def_228)))
(let ((.def_398 (= b1081 .def_229)))
(let ((.def_394 ((_ to_fp 11 53) RNE b1180)))
(let ((.def_395 (fp.leq b230 .def_394)))
(let ((.def_396 (not .def_395)))
(let ((.def_230 (fp.add RNE .def_40 .def_229)))
(let ((.def_391 (= b1076 .def_230)))
(let ((.def_387 ((_ to_fp 11 53) RNE b1175)))
(let ((.def_388 (fp.leq b230 .def_387)))
(let ((.def_389 (not .def_388)))
(let ((.def_231 (fp.add RNE .def_48 .def_230)))
(let ((.def_384 (= b1071 .def_231)))
(let ((.def_380 ((_ to_fp 11 53) RNE b1170)))
(let ((.def_381 (fp.leq b230 .def_380)))
(let ((.def_382 (not .def_381)))
(let ((.def_232 (fp.add RNE .def_56 .def_231)))
(let ((.def_377 (= b1066 .def_232)))
(let ((.def_373 ((_ to_fp 11 53) RNE b1165)))
(let ((.def_374 (fp.leq b230 .def_373)))
(let ((.def_375 (not .def_374)))
(let ((.def_233 (fp.add RNE .def_64 .def_232)))
(let ((.def_370 (= b1061 .def_233)))
(let ((.def_366 ((_ to_fp 11 53) RNE b1160)))
(let ((.def_367 (fp.leq b230 .def_366)))
(let ((.def_368 (not .def_367)))
(let ((.def_234 (fp.add RNE .def_72 .def_233)))
(let ((.def_363 (= b1056 .def_234)))
(let ((.def_359 ((_ to_fp 11 53) RNE b1155)))
(let ((.def_360 (fp.leq b230 .def_359)))
(let ((.def_361 (not .def_360)))
(let ((.def_235 (fp.add RNE .def_80 .def_234)))
(let ((.def_356 (= b1051 .def_235)))
(let ((.def_352 ((_ to_fp 11 53) RNE b1150)))
(let ((.def_353 (fp.leq b230 .def_352)))
(let ((.def_354 (not .def_353)))
(let ((.def_236 (fp.add RNE .def_88 .def_235)))
(let ((.def_349 (= b1046 .def_236)))
(let ((.def_345 ((_ to_fp 11 53) RNE b1145)))
(let ((.def_346 (fp.leq b230 .def_345)))
(let ((.def_347 (not .def_346)))
(let ((.def_237 (fp.add RNE .def_96 .def_236)))
(let ((.def_342 (= b1041 .def_237)))
(let ((.def_338 ((_ to_fp 11 53) RNE b1140)))
(let ((.def_339 (fp.leq b230 .def_338)))
(let ((.def_340 (not .def_339)))
(let ((.def_238 (fp.add RNE .def_104 .def_237)))
(let ((.def_335 (= b1036 .def_238)))
(let ((.def_331 ((_ to_fp 11 53) RNE b1135)))
(let ((.def_332 (fp.leq b230 .def_331)))
(let ((.def_333 (not .def_332)))
(let ((.def_239 (fp.add RNE .def_112 .def_238)))
(let ((.def_328 (= b1031 .def_239)))
(let ((.def_324 ((_ to_fp 11 53) RNE b1130)))
(let ((.def_325 (fp.leq b230 .def_324)))
(let ((.def_326 (not .def_325)))
(let ((.def_240 (fp.add RNE .def_120 .def_239)))
(let ((.def_321 (= b1026 .def_240)))
(let ((.def_317 ((_ to_fp 11 53) RNE b1125)))
(let ((.def_318 (fp.leq b230 .def_317)))
(let ((.def_319 (not .def_318)))
(let ((.def_241 (fp.add RNE .def_128 .def_240)))
(let ((.def_314 (= b1021 .def_241)))
(let ((.def_310 ((_ to_fp 11 53) RNE b1120)))
(let ((.def_311 (fp.leq b230 .def_310)))
(let ((.def_312 (not .def_311)))
(let ((.def_242 (fp.add RNE .def_136 .def_241)))
(let ((.def_307 (= b1016 .def_242)))
(let ((.def_303 ((_ to_fp 11 53) RNE b1115)))
(let ((.def_304 (fp.leq b230 .def_303)))
(let ((.def_305 (not .def_304)))
(let ((.def_243 (fp.add RNE .def_144 .def_242)))
(let ((.def_300 (= b1011 .def_243)))
(let ((.def_296 ((_ to_fp 11 53) RNE b1110)))
(let ((.def_297 (fp.leq b230 .def_296)))
(let ((.def_298 (not .def_297)))
(let ((.def_244 (fp.add RNE .def_152 .def_243)))
(let ((.def_293 (= b1006 .def_244)))
(let ((.def_289 ((_ to_fp 11 53) RNE b1105)))
(let ((.def_290 (fp.leq b230 .def_289)))
(let ((.def_291 (not .def_290)))
(let ((.def_286 (fp.leq b198 b685)))
(let ((.def_284 (fp.leq b682 b198)))
(let ((.def_281 (fp.leq b989 b685)))
(let ((.def_277 (fp.leq b996 b207)))
(let ((.def_278 (not .def_277)))
(let ((.def_245 (fp.add RNE .def_160 .def_244)))
(let ((.def_274 (= b1001 .def_245)))
(let ((.def_269 ((_ to_fp 11 53) RNE b1100)))
(let ((.def_271 (fp.leq b230 .def_269)))
(let ((.def_272 (not .def_271)))
(let ((.def_265 (fp.neg b994)))
(let ((.def_266 (= b996 .def_265)))
(let ((.def_262 (fp.leq b200 b994)))
(let ((.def_263 (not .def_262)))
(let ((.def_258 (fp.neg b198)))
(let ((.def_259 (= b989 .def_258)))
(let ((.def_256 (fp.leq b200 b198)))
(let ((.def_257 (not .def_256)))
(let ((.def_260 (and .def_257 .def_259)))
(let ((.def_253 (= b198 b989)))
(let ((.def_254 (not .def_253)))
(let ((.def_261 (and .def_254 .def_260)))
(let ((.def_264 (and .def_261 .def_263)))
(let ((.def_267 (and .def_264 .def_266)))
(let ((.def_250 (= b994 b996)))
(let ((.def_251 (not .def_250)))
(let ((.def_268 (and .def_251 .def_267)))
(let ((.def_273 (and .def_268 .def_272)))
(let ((.def_275 (and .def_273 .def_274)))
(let ((.def_279 (and .def_275 .def_278)))
(let ((.def_282 (and .def_279 .def_281)))
(let ((.def_285 (and .def_282 .def_284)))
(let ((.def_287 (and .def_285 .def_286)))
(let ((.def_246 (fp.add RNE .def_168 .def_245)))
(let ((.def_247 (= b1001 .def_246)))
(let ((.def_248 (not .def_247)))
(let ((.def_288 (and .def_248 .def_287)))
(let ((.def_292 (and .def_288 .def_291)))
(let ((.def_294 (and .def_292 .def_293)))
(let ((.def_225 (= b1006 b1001)))
(let ((.def_226 (not .def_225)))
(let ((.def_295 (and .def_226 .def_294)))
(let ((.def_299 (and .def_295 .def_298)))
(let ((.def_301 (and .def_299 .def_300)))
(let ((.def_222 (= b1011 b1006)))
(let ((.def_223 (not .def_222)))
(let ((.def_302 (and .def_223 .def_301)))
(let ((.def_306 (and .def_302 .def_305)))
(let ((.def_308 (and .def_306 .def_307)))
(let ((.def_219 (= b1016 b1011)))
(let ((.def_220 (not .def_219)))
(let ((.def_309 (and .def_220 .def_308)))
(let ((.def_313 (and .def_309 .def_312)))
(let ((.def_315 (and .def_313 .def_314)))
(let ((.def_216 (= b1021 b1016)))
(let ((.def_217 (not .def_216)))
(let ((.def_316 (and .def_217 .def_315)))
(let ((.def_320 (and .def_316 .def_319)))
(let ((.def_322 (and .def_320 .def_321)))
(let ((.def_213 (= b1026 b1021)))
(let ((.def_214 (not .def_213)))
(let ((.def_323 (and .def_214 .def_322)))
(let ((.def_327 (and .def_323 .def_326)))
(let ((.def_329 (and .def_327 .def_328)))
(let ((.def_210 (= b1031 b1026)))
(let ((.def_211 (not .def_210)))
(let ((.def_330 (and .def_211 .def_329)))
(let ((.def_334 (and .def_330 .def_333)))
(let ((.def_336 (and .def_334 .def_335)))
(let ((.def_207 (= b1036 b1031)))
(let ((.def_208 (not .def_207)))
(let ((.def_337 (and .def_208 .def_336)))
(let ((.def_341 (and .def_337 .def_340)))
(let ((.def_343 (and .def_341 .def_342)))
(let ((.def_204 (= b1041 b1036)))
(let ((.def_205 (not .def_204)))
(let ((.def_344 (and .def_205 .def_343)))
(let ((.def_348 (and .def_344 .def_347)))
(let ((.def_350 (and .def_348 .def_349)))
(let ((.def_201 (= b1046 b1041)))
(let ((.def_202 (not .def_201)))
(let ((.def_351 (and .def_202 .def_350)))
(let ((.def_355 (and .def_351 .def_354)))
(let ((.def_357 (and .def_355 .def_356)))
(let ((.def_198 (= b1051 b1046)))
(let ((.def_199 (not .def_198)))
(let ((.def_358 (and .def_199 .def_357)))
(let ((.def_362 (and .def_358 .def_361)))
(let ((.def_364 (and .def_362 .def_363)))
(let ((.def_195 (= b1056 b1051)))
(let ((.def_196 (not .def_195)))
(let ((.def_365 (and .def_196 .def_364)))
(let ((.def_369 (and .def_365 .def_368)))
(let ((.def_371 (and .def_369 .def_370)))
(let ((.def_192 (= b1061 b1056)))
(let ((.def_193 (not .def_192)))
(let ((.def_372 (and .def_193 .def_371)))
(let ((.def_376 (and .def_372 .def_375)))
(let ((.def_378 (and .def_376 .def_377)))
(let ((.def_189 (= b1066 b1061)))
(let ((.def_190 (not .def_189)))
(let ((.def_379 (and .def_190 .def_378)))
(let ((.def_383 (and .def_379 .def_382)))
(let ((.def_385 (and .def_383 .def_384)))
(let ((.def_186 (= b1071 b1066)))
(let ((.def_187 (not .def_186)))
(let ((.def_386 (and .def_187 .def_385)))
(let ((.def_390 (and .def_386 .def_389)))
(let ((.def_392 (and .def_390 .def_391)))
(let ((.def_183 (= b1076 b1071)))
(let ((.def_184 (not .def_183)))
(let ((.def_393 (and .def_184 .def_392)))
(let ((.def_397 (and .def_393 .def_396)))
(let ((.def_399 (and .def_397 .def_398)))
(let ((.def_180 (= b1081 b1076)))
(let ((.def_181 (not .def_180)))
(let ((.def_400 (and .def_181 .def_399)))
(let ((.def_404 (and .def_400 .def_403)))
(let ((.def_406 (and .def_404 .def_405)))
(let ((.def_177 (= b1086 b1081)))
(let ((.def_178 (not .def_177)))
(let ((.def_407 (and .def_178 .def_406)))
(let ((.def_411 (and .def_407 .def_410)))
(let ((.def_413 (and .def_411 .def_412)))
(let ((.def_174 (= b994 b1086)))
(let ((.def_175 (not .def_174)))
(let ((.def_414 (and .def_175 .def_413)))
(let ((.def_417 (and .def_414 .def_416)))
(let ((.def_420 (and .def_417 .def_419)))
(let ((.def_170 (= .def_168 b1095)))
(let ((.def_171 (not .def_170)))
(let ((.def_421 (and .def_171 .def_420)))
(let ((.def_424 (and .def_421 .def_423)))
(let ((.def_427 (and .def_424 .def_426)))
(let ((.def_162 (= .def_160 b1100)))
(let ((.def_163 (not .def_162)))
(let ((.def_428 (and .def_163 .def_427)))
(let ((.def_431 (and .def_428 .def_430)))
(let ((.def_434 (and .def_431 .def_433)))
(let ((.def_154 (= .def_152 b1105)))
(let ((.def_155 (not .def_154)))
(let ((.def_435 (and .def_155 .def_434)))
(let ((.def_438 (and .def_435 .def_437)))
(let ((.def_441 (and .def_438 .def_440)))
(let ((.def_146 (= .def_144 b1110)))
(let ((.def_147 (not .def_146)))
(let ((.def_442 (and .def_147 .def_441)))
(let ((.def_445 (and .def_442 .def_444)))
(let ((.def_448 (and .def_445 .def_447)))
(let ((.def_138 (= .def_136 b1115)))
(let ((.def_139 (not .def_138)))
(let ((.def_449 (and .def_139 .def_448)))
(let ((.def_452 (and .def_449 .def_451)))
(let ((.def_455 (and .def_452 .def_454)))
(let ((.def_130 (= .def_128 b1120)))
(let ((.def_131 (not .def_130)))
(let ((.def_456 (and .def_131 .def_455)))
(let ((.def_459 (and .def_456 .def_458)))
(let ((.def_462 (and .def_459 .def_461)))
(let ((.def_122 (= .def_120 b1125)))
(let ((.def_123 (not .def_122)))
(let ((.def_463 (and .def_123 .def_462)))
(let ((.def_466 (and .def_463 .def_465)))
(let ((.def_469 (and .def_466 .def_468)))
(let ((.def_114 (= .def_112 b1130)))
(let ((.def_115 (not .def_114)))
(let ((.def_470 (and .def_115 .def_469)))
(let ((.def_473 (and .def_470 .def_472)))
(let ((.def_476 (and .def_473 .def_475)))
(let ((.def_106 (= .def_104 b1135)))
(let ((.def_107 (not .def_106)))
(let ((.def_477 (and .def_107 .def_476)))
(let ((.def_480 (and .def_477 .def_479)))
(let ((.def_483 (and .def_480 .def_482)))
(let ((.def_98 (= .def_96 b1140)))
(let ((.def_99 (not .def_98)))
(let ((.def_484 (and .def_99 .def_483)))
(let ((.def_487 (and .def_484 .def_486)))
(let ((.def_490 (and .def_487 .def_489)))
(let ((.def_90 (= .def_88 b1145)))
(let ((.def_91 (not .def_90)))
(let ((.def_491 (and .def_91 .def_490)))
(let ((.def_494 (and .def_491 .def_493)))
(let ((.def_497 (and .def_494 .def_496)))
(let ((.def_82 (= .def_80 b1150)))
(let ((.def_83 (not .def_82)))
(let ((.def_498 (and .def_83 .def_497)))
(let ((.def_501 (and .def_498 .def_500)))
(let ((.def_504 (and .def_501 .def_503)))
(let ((.def_74 (= .def_72 b1155)))
(let ((.def_75 (not .def_74)))
(let ((.def_505 (and .def_75 .def_504)))
(let ((.def_508 (and .def_505 .def_507)))
(let ((.def_511 (and .def_508 .def_510)))
(let ((.def_66 (= .def_64 b1160)))
(let ((.def_67 (not .def_66)))
(let ((.def_512 (and .def_67 .def_511)))
(let ((.def_515 (and .def_512 .def_514)))
(let ((.def_518 (and .def_515 .def_517)))
(let ((.def_58 (= .def_56 b1165)))
(let ((.def_59 (not .def_58)))
(let ((.def_519 (and .def_59 .def_518)))
(let ((.def_522 (and .def_519 .def_521)))
(let ((.def_525 (and .def_522 .def_524)))
(let ((.def_50 (= .def_48 b1170)))
(let ((.def_51 (not .def_50)))
(let ((.def_526 (and .def_51 .def_525)))
(let ((.def_529 (and .def_526 .def_528)))
(let ((.def_532 (and .def_529 .def_531)))
(let ((.def_42 (= .def_40 b1175)))
(let ((.def_43 (not .def_42)))
(let ((.def_533 (and .def_43 .def_532)))
(let ((.def_536 (and .def_533 .def_535)))
(let ((.def_539 (and .def_536 .def_538)))
(let ((.def_34 (= .def_32 b1180)))
(let ((.def_35 (not .def_34)))
(let ((.def_540 (and .def_35 .def_539)))
(let ((.def_543 (and .def_540 .def_542)))
(let ((.def_546 (and .def_543 .def_545)))
(let ((.def_26 (= .def_24 b1185)))
(let ((.def_27 (not .def_26)))
(let ((.def_547 (and .def_27 .def_546)))
(let ((.def_550 (and .def_547 .def_549)))
(let ((.def_553 (and .def_550 .def_552)))
(let ((.def_557 (and .def_553 .def_556)))
(let ((.def_18 (= .def_16 b1190)))
(let ((.def_19 (not .def_18)))
(let ((.def_558 (and .def_19 .def_557)))
.def_558))))))))))))))))))))))))))))))))))))))))))))))))))))))))))))))))))))))))))))))))))))))))))))))))))))))))))))))))))))))))))))))))))))))))))))))))))))))))))))))))))))))))))))))))))))))))))))))))))))))))))))))))))))))))))))))))))))))))))))))))))))))))))))))))))))))))))))))))))))))))))))))))))))))))))))))))))))))))))))))))))))))))))))))))))))))))))))))))))))))))))))))))))))))))))))))))))))))))))))))))))))))))))))))))))))))))))))))))))))))))))))))))))))))))))))))))))))))))))))))))))))
(check-sat)
